
Gurobi 9.0.2 (win64) logging started Sun Dec 27 05:38:00 2020

Changed value of parameter logfile to result\SunCable-20201227T0415\scenario_2030_m10_cab3000.log
   Prev:   Default: 
Gurobi Optimizer version 9.0.2 build v9.0.2rc0 (win64)
Optimize a model with 1243974 rows, 762167 columns and 3491691 nonzeros
Model fingerprint: 0xcdfaf1c4
Coefficient statistics:
  Matrix range     [1e-07, 3e+05]
  Objective range  [1e+00, 1e+00]
  Bounds range     [0e+00, 0e+00]
  RHS range        [2e-05, 3e+08]
Warning: Model contains large matrix coefficient range
         Consider reformulating model or setting NumericFocus parameter
         to avoid numerical issues.

Concurrent LP optimizer: primal simplex, dual simplex, and barrier
Showing barrier log only...

Presolve removed 1068997 rows and 595935 columns
Presolve time: 2.73s
Presolved: 174977 rows, 280098 columns, 652320 nonzeros

Ordering time: 0.08s

Barrier statistics:
 Dense cols : 5
 AA' NZ     : 6.422e+05
 Factor NZ  : 3.150e+06 (roughly 200 MBytes of memory)
 Factor Ops : 7.040e+07 (less than 1 second per iteration)
 Threads    : 30

                  Objective                Residual
Iter       Primal          Dual         Primal    Dual     Compl     Time
   0  -2.44568536e+16 -1.07293672e+15  7.13e+06 2.57e+04  2.94e+12     3s
   1  -5.34561151e+15 -1.08597413e+15  1.56e+06 4.55e+06  8.36e+11     3s
   2  -1.61613601e+15 -1.02984982e+15  4.73e+05 1.12e+06  2.46e+11     4s
   3  -3.40465465e+14 -9.30222856e+14  1.01e+05 1.47e+05  4.91e+10     4s
   4  -8.74007903e+13 -5.77691362e+14  2.50e+04 3.79e+04  1.28e+10     4s
   5  -2.50397162e+13 -4.15966617e+14  7.19e+03 2.17e+04  4.82e+09     5s
   6  -1.02632351e+13 -2.56475690e+14  3.06e+03 8.41e+03  2.06e+09     5s
   7  -3.05117969e+12 -1.18682579e+14  1.02e+03 1.14e+03  5.53e+08     5s
   8   4.03578939e+11 -3.32956556e+13  2.50e+01 6.24e+01  6.72e+07     5s
   9   3.01756451e+11 -1.46407934e+12  1.43e-01 1.88e+00  3.25e+06     5s
  10   1.73216990e+11 -6.89996311e+11  7.23e-02 5.03e-01  1.56e+06     6s
  11   5.03119404e+10 -3.37246263e+11  1.30e-02 1.12e-08  6.89e+05     6s
  12   1.91961608e+10 -1.40030830e+11  3.49e-03 1.49e-08  2.81e+05     6s
  13   1.64571429e+10 -6.66284197e+10  2.75e-03 1.49e-08  1.47e+05     7s
  14   1.67323597e+10 -5.90306357e+10  2.53e-03 2.24e-08  1.34e+05     7s
  15   9.48369957e+09 -3.19972163e+10  6.40e-04 1.49e-08  7.30e+04     7s
  16   8.50155068e+09 -8.56885761e+09  3.52e-04 1.49e-08  3.00e+04     7s
  17   7.73979274e+09 -6.96851344e+08  1.48e-04 9.31e-09  1.48e+04     7s
  18   7.41805078e+09  2.90904289e+09  7.54e-05 7.45e-09  7.93e+03     8s
  19   7.27431750e+09  3.71829052e+09  4.82e-05 5.59e-09  6.25e+03     8s
  20   7.15461234e+09  4.25523401e+09  2.62e-05 4.66e-09  5.10e+03     8s
  21   7.08810126e+09  5.62166205e+09  1.58e-05 3.73e-09  2.58e+03     8s
  22   7.06827116e+09  5.92066413e+09  1.29e-05 2.79e-09  2.02e+03     9s
  23   7.05226394e+09  6.00335976e+09  1.06e-05 3.73e-09  1.84e+03     9s
  24   7.03616692e+09  6.10058410e+09  8.38e-06 2.79e-09  1.65e+03     9s
  25   7.02575417e+09  6.35396231e+09  6.97e-06 2.79e-09  1.18e+03     9s
  26   7.01130565e+09  6.51841033e+09  5.09e-06 2.79e-09  8.67e+02    10s
  27   7.00465831e+09  6.55087392e+09  4.23e-06 2.79e-09  7.98e+02    10s
  28   6.99658301e+09  6.67797597e+09  3.24e-06 1.86e-09  5.60e+02    10s
  29   6.98902855e+09  6.73648133e+09  2.34e-06 1.86e-09  4.44e+02    11s
  30   6.98495782e+09  6.75453366e+09  1.87e-06 1.86e-09  4.05e+02    11s
  31   6.98269038e+09  6.77608812e+09  1.62e-06 1.86e-09  3.63e+02    11s
  32   6.97792708e+09  6.84190062e+09  1.10e-06 2.79e-09  2.39e+02    12s
  33   6.97609713e+09  6.87946665e+09  9.14e-07 1.86e-09  1.70e+02    12s
  34   6.97381394e+09  6.88433714e+09  6.85e-07 1.86e-09  1.57e+02    12s
  35   6.97150712e+09  6.90462000e+09  4.63e-07 1.86e-09  1.18e+02    13s
  36   6.96955260e+09  6.92039600e+09  2.79e-07 1.86e-09  8.64e+01    13s
  37   6.96849336e+09  6.92425281e+09  1.79e-07 2.79e-09  7.78e+01    13s
  38   6.96761190e+09  6.93977293e+09  1.16e-07 1.86e-09  4.89e+01    14s
  39   6.96718616e+09  6.94657899e+09  6.92e-08 1.86e-09  3.62e+01    14s
  40   6.96701406e+09  6.94858725e+09  1.61e-07 1.86e-09  3.24e+01    14s
  41   6.96659285e+09  6.95348263e+09  8.91e-08 1.86e-09  2.31e+01    15s
  42   6.96649792e+09  6.95742763e+09  7.17e-08 1.86e-09  1.59e+01    15s
  43   6.96643331e+09  6.95823918e+09  4.66e-08 1.86e-09  1.44e+01    15s
  44   6.96642576e+09  6.96005707e+09  4.38e-08 1.86e-09  1.12e+01    15s
  45   6.96639463e+09  6.96015180e+09  3.75e-08 1.86e-09  1.10e+01    15s
  46   6.96632417e+09  6.96150182e+09  4.96e-08 1.86e-09  8.48e+00    16s
  47   6.96625254e+09  6.96495165e+09  1.42e-06 2.79e-09  2.29e+00    16s
  48   6.96622858e+09  6.96545646e+09  2.16e-06 2.79e-09  1.36e+00    16s
  49   6.96622590e+09  6.96601184e+09  1.22e-06 2.79e-09  3.76e-01    17s
  50   6.96622342e+09  6.96611559e+09  2.47e-07 2.79e-09  1.90e-01    17s
  51   6.96622252e+09  6.96616699e+09  1.43e-06 2.79e-09  9.76e-02    17s
  52   6.96622245e+09  6.96621077e+09  6.46e-07 2.79e-09  2.05e-02    17s
  53   6.96622231e+09  6.96621105e+09  5.02e-07 2.79e-09  1.98e-02    18s

Barrier solved model in 53 iterations and 17.64 seconds
Optimal objective 6.96622231e+09

Crossover log...

   15528 DPushes remaining with DInf 0.0000000e+00                18s
       0 DPushes remaining with DInf 0.0000000e+00                19s

  135641 PPushes remaining with PInf 0.0000000e+00                19s
    8467 PPushes remaining with PInf 3.5919208e-02                20s
       0 PPushes remaining with PInf 0.0000000e+00                31s

  Push phase complete: Pinf 0.0000000e+00, Dinf 9.4449942e+03     32s

Iteration    Objective       Primal Inf.    Dual Inf.      Time
  151171    6.9662218e+09   0.000000e+00   9.444994e+03     32s
  151587    6.9662218e+09   0.000000e+00   0.000000e+00     34s

Solved with barrier
Solved in 151587 iterations and 34.35 seconds
Optimal objective  6.966221821e+09
Warning: unscaled primal violation = 0.000885187 and residual = 0.000885187
